%nproc=1
%mem=20MW
#p sp scf=tight HF/3-21G* geom=connect test

Title Card Required

0 1
 Si                 -0.51802520     1.78696677    -0.93011030
 Si                  0.56940467    -1.05211734     2.42750709
 Si                 -0.75755361     1.90421400     1.59904555
 Si                 -0.48567797    -0.66362758    -1.26830880
 Si                 -1.24731253    -1.82276607     0.71800281
 Si                  1.61802847     0.55205961    -0.31359794
 Si                  1.14871834    -1.91469880     0.10453473
 Si                  1.68091642     1.26770187     2.16867820
 Si                 -1.83319874    -0.21688206     2.50656269
 Si                 -2.21022660     0.31742144     0.12030346

1    
2    
3    
4    
5    
6    
7    
8    
9    
10   

